5 6 5 6 600
1.0 0.21 0.0 0.18 4.0 0.24 3.0 0.26 2.0 0.48 3.0 0.27
3.0 0.36 2.0 0.3 4.0 0.5 1.0 0.19 0.0 0.43 2.0 0.41
1.0 0.36 4.0 0.34 2.0 0.18 3.0 0.38 0.0 0.35 2.0 0.16
1.0 0.44 4.0 0.32 3.0 0.32 2.0 0.48 0.0 0.36 1.0 0.35
1.0 0.18 3.0 0.35 1.0 0.18 4.0 0.34 0.0 0.3 2.0 0.29
